c In Weigthed Partial Max-SAT, the parameters line is 'p wcnf nbvar nbclauses top'
c Where p is the weight
c nbvar is the nu	mber of a variables appearing in the file (TYPEBITS +1)
c nbclauses is the exact number of clauses contained in the file
c see http://maxsat.ia.udl.cat/requirements/
p wcnf 11 192 23719121
23712404 -3 -4 -1 -2 -5 0
23712403 3 -4 -1 -2 -5 0
23712402 -3 4 -1 -2 -5 0
23712402 3 4 -1 -2 -5 0
23712401 -3 -4 1 -2 -5 0
23712401 3 -4 1 -2 -5 0
23712401 -3 4 1 -2 -5 0
23712401 3 4 1 -2 -5 0
23712400 -3 -4 -1 2 -5 0
23712400 3 -4 -1 2 -5 0
23712400 -3 4 -1 2 -5 0
23712400 3 4 -1 2 -5 0
23712400 -3 -4 1 2 -5 0
23712400 3 -4 1 2 -5 0
23712400 -3 4 1 2 -5 0
23712400 3 4 1 2 -5 0
23712399 -3 -4 -1 -2 5 0
23712399 3 -4 -1 -2 5 0
23712399 -3 4 -1 -2 5 0
23712399 3 4 -1 -2 5 0
23712399 -3 -4 1 -2 5 0
23712399 3 -4 1 -2 5 0
23712399 -3 4 1 -2 5 0
23712399 3 4 1 -2 5 0
23712399 -3 -4 -1 2 5 0
23712399 3 -4 -1 2 5 0
23712399 -3 4 -1 2 5 0
23712399 3 4 -1 2 5 0
23712399 -3 -4 1 2 5 0
23712399 3 -4 1 2 5 0
23712399 -3 4 1 2 5 0
23712399 3 4 1 2 5 0
23712398 -3 -4 -1 -2 -5 0
23712398 3 -4 -1 -2 -5 0
23712398 -3 4 -1 -2 -5 0
23712398 3 4 -1 -2 -5 0
23712398 -3 -4 1 -2 -5 0
23712398 3 -4 1 -2 -5 0
23712398 -3 4 1 -2 -5 0
23712398 3 4 1 -2 -5 0
23712398 -3 -4 -1 2 -5 0
23712398 3 -4 -1 2 -5 0
23712398 -3 4 -1 2 -5 0
23712398 3 4 -1 2 -5 0
23712398 -3 -4 1 2 -5 0
23712398 3 -4 1 2 -5 0
23712398 -3 4 1 2 -5 0
23712398 3 4 1 2 -5 0
23712398 -3 -4 -1 -2 5 0
23712398 3 -4 -1 -2 5 0
23712398 -3 4 -1 -2 5 0
23712398 3 4 -1 -2 5 0
23712398 -3 -4 1 -2 5 0
23712398 3 -4 1 -2 5 0
23712398 -3 4 1 -2 5 0
23712398 3 4 1 -2 5 0
23712398 -3 -4 -1 2 5 0
23712398 3 -4 -1 2 5 0
23712398 -3 4 -1 2 5 0
23712398 3 4 -1 2 5 0
23712398 -3 -4 1 2 5 0
23712398 3 -4 1 2 5 0
23712398 -3 4 1 2 5 0
23712398 3 4 1 2 5 0
23712285 -6 -7 -1 -2 -8 0
23712284 6 -7 -1 -2 -8 0
23712283 -6 7 -1 -2 -8 0
23712283 6 7 -1 -2 -8 0
23712282 -6 -7 1 -2 -8 0
23712282 6 -7 1 -2 -8 0
23712282 -6 7 1 -2 -8 0
23712282 6 7 1 -2 -8 0
23712281 -6 -7 -1 2 -8 0
23712281 6 -7 -1 2 -8 0
23712281 -6 7 -1 2 -8 0
23712281 6 7 -1 2 -8 0
23712281 -6 -7 1 2 -8 0
23712281 6 -7 1 2 -8 0
23712281 -6 7 1 2 -8 0
23712281 6 7 1 2 -8 0
23712280 -6 -7 -1 -2 8 0
23712280 6 -7 -1 -2 8 0
23712280 -6 7 -1 -2 8 0
23712280 6 7 -1 -2 8 0
23712280 -6 -7 1 -2 8 0
23712280 6 -7 1 -2 8 0
23712280 -6 7 1 -2 8 0
23712280 6 7 1 -2 8 0
23712280 -6 -7 -1 2 8 0
23712280 6 -7 -1 2 8 0
23712280 -6 7 -1 2 8 0
23712280 6 7 -1 2 8 0
23712280 -6 -7 1 2 8 0
23712280 6 -7 1 2 8 0
23712280 -6 7 1 2 8 0
23712280 6 7 1 2 8 0
23712279 -6 -7 -1 -2 -8 0
23712279 6 -7 -1 -2 -8 0
23712279 -6 7 -1 -2 -8 0
23712279 6 7 -1 -2 -8 0
23712279 -6 -7 1 -2 -8 0
23712279 6 -7 1 -2 -8 0
23712279 -6 7 1 -2 -8 0
23712279 6 7 1 -2 -8 0
23712279 -6 -7 -1 2 -8 0
23712279 6 -7 -1 2 -8 0
23712279 -6 7 -1 2 -8 0
23712279 6 7 -1 2 -8 0
23712279 -6 -7 1 2 -8 0
23712279 6 -7 1 2 -8 0
23712279 -6 7 1 2 -8 0
23712279 6 7 1 2 -8 0
23712279 -6 -7 -1 -2 8 0
23712279 6 -7 -1 -2 8 0
23712279 -6 7 -1 -2 8 0
23712279 6 7 -1 -2 8 0
23712279 -6 -7 1 -2 8 0
23712279 6 -7 1 -2 8 0
23712279 -6 7 1 -2 8 0
23712279 6 7 1 -2 8 0
23712279 -6 -7 -1 2 8 0
23712279 6 -7 -1 2 8 0
23712279 -6 7 -1 2 8 0
23712279 6 7 -1 2 8 0
23712279 -6 -7 1 2 8 0
23712279 6 -7 1 2 8 0
23712279 -6 7 1 2 8 0
23712279 6 7 1 2 8 0
23711720 -10 -9 -1 -2 -11 0
23711712 10 -9 -1 -2 -11 0
23711704 -10 9 -1 -2 -11 0
23711704 10 9 -1 -2 -11 0
23711696 -10 -9 1 -2 -11 0
23711696 10 -9 1 -2 -11 0
23711696 -10 9 1 -2 -11 0
23711696 10 9 1 -2 -11 0
23711696 -10 -9 -1 2 -11 0
23711696 10 -9 -1 2 -11 0
23711696 -10 9 -1 2 -11 0
23711696 10 9 -1 2 -11 0
23711696 -10 -9 1 2 -11 0
23711696 10 -9 1 2 -11 0
23711696 -10 9 1 2 -11 0
23711696 10 9 1 2 -11 0
23711696 -10 -9 -1 -2 11 0
23711696 10 -9 -1 -2 11 0
23711696 -10 9 -1 -2 11 0
23711696 10 9 -1 -2 11 0
23711696 -10 -9 1 -2 11 0
23711696 10 -9 1 -2 11 0
23711696 -10 9 1 -2 11 0
23711696 10 9 1 -2 11 0
23711696 -10 -9 -1 2 11 0
23711696 10 -9 -1 2 11 0
23711696 -10 9 -1 2 11 0
23711696 10 9 -1 2 11 0
23711696 -10 -9 1 2 11 0
23711696 10 -9 1 2 11 0
23711696 -10 9 1 2 11 0
23711696 10 9 1 2 11 0
23711696 -10 -9 -1 -2 -11 0
23711696 10 -9 -1 -2 -11 0
23711696 -10 9 -1 -2 -11 0
23711696 10 9 -1 -2 -11 0
23711696 -10 -9 1 -2 -11 0
23711696 10 -9 1 -2 -11 0
23711696 -10 9 1 -2 -11 0
23711696 10 9 1 -2 -11 0
23711696 -10 -9 -1 2 -11 0
23711696 10 -9 -1 2 -11 0
23711696 -10 9 -1 2 -11 0
23711696 10 9 -1 2 -11 0
23711696 -10 -9 1 2 -11 0
23711696 10 -9 1 2 -11 0
23711696 -10 9 1 2 -11 0
23711696 10 9 1 2 -11 0
23711696 -10 -9 -1 -2 11 0
23711696 10 -9 -1 -2 11 0
23711696 -10 9 -1 -2 11 0
23711696 10 9 -1 -2 11 0
23711696 -10 -9 1 -2 11 0
23711696 10 -9 1 -2 11 0
23711696 -10 9 1 -2 11 0
23711696 10 9 1 -2 11 0
23711696 -10 -9 -1 2 11 0
23711696 10 -9 -1 2 11 0
23711696 -10 9 -1 2 11 0
23711696 10 9 -1 2 11 0
23711696 -10 -9 1 2 11 0
23711696 10 -9 1 2 11 0
23711696 -10 9 1 2 11 0
23711696 10 9 1 2 11 0
